unsat
(define-fun q1 () Bool false)
(define-fun q2 () Bool true)
(define-fun g1 ((x Obj)) Bool (labelOf x oven))
(define-fun g2 ((x Obj)) Bool (labelOf x sink))
(define-fun f ((x1 Obj) (x2 Obj)) Bool true)
(define-fun c1 () Bool false)
(define-fun c2 () Bool false)
(define-fun c3 () Bool true)
477.15user 15.28system 8:12.56elapsed 99%CPU (0avgtext+0avgdata 158748maxresident)k
0inputs+0outputs (0major+36539minor)pagefaults 0swaps
kitchen_abc-1.32.2e
